solving instance mcf nodes c45 3 6 sinabc1
Couenne 0.5.8 -- an Open-Source solver for Mixed Integer Nonlinear Optimization
Mailing list: couenne@list.coin-or.org
Instructions: http://www.coin-or.org/Couenne
couenne: 
ANALYSIS TEST: Reading problem: 0.0 seconds
Reformulating problem: 394.5 seconds
NLP0012I 
              Num      Status      Obj             It       time                 Location
NLP0014I             1         OPT 2603.5954      145 296.67093
NLP0014I             2         OPT 3950.6529      568 1373.7026
Couenne: new cutoff value 3.9506528933e+03 (2529.58 seconds)
Loaded instance "/tmp/jl_LRbdpG/model.nl"
Constraints:         4648
Variables:          59448 (314 integer)
Auxiliaries:          281 (0 integer)

Coin0506I Presolve 4505 (-344) rows, 58891 (-838) columns and 235641 (-982) elements
Clp0030I 0 infeas 33892, obj 0 - mu 1000, its 0, 0 interior
Clp0030I 1 infeas 14441.676, obj 0 - mu 1000, its 2, 6367 interior
Clp0030I 2 infeas 214.94373, obj 0 - mu 1000, its 52, 20292 interior
Clp0030I 3 infeas 202.06051, obj 0 - mu 1000, its 52, 21040 interior
Clp0030I 4 infeas 193.20963, obj 0 - mu 1000, its 52, 21703 interior
Clp0030I 5 infeas 187.44635, obj 0 - mu 1000, its 52, 22139 interior
Clp0030I 6 infeas 176.09581, obj 0 - mu 1000, its 52, 22543 interior
Clp0030I 7 infeas 159.22747, obj 0 - mu 333.3, its 52, 23641 interior
Clp0030I 8 infeas 156.88283, obj 0 - mu 333.3, its 52, 23747 interior
Clp0030I 9 infeas 152.66777, obj 0 - mu 333.3, its 52, 23968 interior
Clp0030I 10 infeas 148.60583, obj 0 - mu 333.3, its 52, 24270 interior
Clp0030I 11 infeas 146.25882, obj 0 - mu 333.3, its 52, 24579 interior
Clp0030I 12 infeas 140.75027, obj 0 - mu 333.3, its 52, 24871 interior
Clp0030I 13 infeas 124.83406, obj 0 - mu 111.08889, its 52, 26007 interior
Clp0030I 14 infeas 123.92059, obj 0 - mu 111.08889, its 52, 26045 interior
Clp0030I 15 infeas 123.77024, obj 0 - mu 111.08889, its 52, 26202 interior
Clp0030I 16 infeas 122.35544, obj 0 - mu 111.08889, its 52, 26477 interior
Clp0030I 17 infeas 121.82075, obj 0 - mu 111.08889, its 52, 26768 interior
Clp0030I 18 infeas 121.33736, obj 0 - mu 111.08889, its 52, 27054 interior
Clp0030I 19 infeas 106.0086, obj 0 - mu 37.025927, its 52, 28046 interior
Clp0030I 20 infeas 105.80788, obj 0 - mu 37.025927, its 52, 28091 interior
Clp0030I 21 infeas 105.77515, obj 0 - mu 37.025927, its 52, 28327 interior
Clp0030I 22 infeas 105.13097, obj 0 - mu 37.025927, its 52, 28640 interior
Clp0030I 23 infeas 104.76742, obj 0 - mu 37.025927, its 52, 28805 interior
Clp0030I 24 infeas 103.63595, obj 0 - mu 37.025927, its 52, 28714 interior
Clp0030I 25 infeas 92.383519, obj 0 - mu 12.340741, its 52, 29627 interior
Clp0030I 26 infeas 91.884912, obj 0 - mu 12.340741, its 52, 29649 interior
Clp0030I 27 infeas 91.823839, obj 0 - mu 12.340741, its 52, 29791 interior
Clp0030I 28 infeas 92.466802, obj 0 - mu 12.340741, its 52, 29730 interior
Clp0030I 29 infeas 92.42028, obj 0 - mu 12.340741, its 52, 29208 interior
Clp0030I 30 infeas 92.34245, obj 0 - mu 12.340741, its 52, 28266 interior
Clp0030I 31 infeas 83.729218, obj 0 - mu 4.1131691, its 52, 29401 interior
Clp0030I 32 infeas 83.410383, obj 0 - mu 4.1131691, its 52, 29418 interior
Clp0030I 33 infeas 84.208637, obj 0 - mu 4.1131691, its 52, 29088 interior
Clp0030I 34 infeas 90.310066, obj 0 - mu 4.1131691, its 105, 23875 interior
Clp0030I 35 infeas 88.147055, obj 0 - mu 4.1131691, its 105, 19385 interior
Clp0030I 36 infeas 85.765216, obj 0 - mu 4.1131691, its 105, 15787 interior
Clp0030I 37 infeas 67.674557, obj 0 - mu 1.3709193, its 52, 19455 interior
Clp0030I 38 infeas 70.282148, obj 0 - mu 1.3709193, its 105, 20209 interior
Clp0030I 39 infeas 68.589438, obj 0 - mu 1.3709193, its 105, 20303 interior
Clp0030I 40 infeas 69.6508, obj 0 - mu 1.3709193, its 105, 16665 interior
Clp0030I 41 infeas 69.906735, obj 0 - mu 1.3709193, its 105, 13612 interior
Clp0030I 42 infeas 66.921693, obj 0 - mu 1.3709193, its 105, 12863 interior
Clp0030I 43 infeas 60.904228, obj 0 - mu 0.45692739, its 105, 16865 interior
Clp0030I 44 infeas 59.790618, obj 0 - mu 0.45692739, its 105, 17046 interior
Clp0030I 45 infeas 59.507917, obj 0 - mu 0.45692739, its 105, 16023 interior
Clp0030I 46 infeas 59.277518, obj 0 - mu 0.45692739, its 105, 14863 interior
Clp0030I 47 infeas 60.087604, obj 0 - mu 0.45692739, its 105, 12542 interior
Clp0030I 48 infeas 60.341973, obj 0 - mu 0.45692739, its 105, 10895 interior
Clp0030I 49 infeas 54.309125, obj 0 - mu 0.1522939, its 105, 14095 interior
Clp0030I 50 infeas 53.848099, obj 0 - mu 0.1522939, its 105, 13236 interior
Clp0006I 0  Obj 14.950255 Primal inf 50.314782 (4073) Dual inf 6.7346346e+14 (24052)
Clp0006I 295  Obj 14.950255 Primal inf 49.560928 (3934) Dual inf 7.8203383e+14 (22350)
Clp0006I 625  Obj 14.950255 Primal inf 48.548583 (3844) Dual inf 7.744958e+14 (19220)
Clp0006I 955  Obj 14.950255 Primal inf 47.913931 (3698) Dual inf 7.4871266e+14 (16828)
Clp0006I 1285  Obj 14.950255 Primal inf 47.692768 (3580) Dual inf 7.2768039e+14 (15684)
Clp0006I 1615  Obj 14.950255 Primal inf 47.64717 (3478) Dual inf 7.0731001e+14 (15295)
Clp0006I 1945  Obj 14.950255 Primal inf 47.597915 (3390) Dual inf 6.9110456e+14 (14926)
Clp0006I 2275  Obj 14.950255 Primal inf 47.549931 (3294) Dual inf 6.7035454e+14 (14526)
Clp0006I 2605  Obj 14.950255 Primal inf 47.494915 (3176) Dual inf 6.4236197e+14 (13981)
Clp0006I 2935  Obj 14.950255 Primal inf 47.451202 (3088) Dual inf 6.2478329e+14 (13608)
Clp0006I 3265  Obj 14.950255 Primal inf 47.405385 (2990) Dual inf 6.0600283e+14 (13236)
Clp0006I 3595  Obj 14.950255 Primal inf 47.355181 (2888) Dual inf 5.830832e+14 (12822)
Clp0006I 3925  Obj 14.950255 Primal inf 47.298508 (2793) Dual inf 5.6770921e+14 (12512)
Clp0006I 4255  Obj 14.950255 Primal inf 47.255397 (2708) Dual inf 5.4897873e+14 (12067)
Clp0006I 4585  Obj 14.950255 Primal inf 47.215843 (2630) Dual inf 5.3596999e+14 (11762)
Clp0006I 4915  Obj 14.950255 Primal inf 47.17013 (2533) Dual inf 5.1686036e+14 (11435)
Clp0006I 5245  Obj 14.950255 Primal inf 47.126319 (2435) Dual inf 4.9522636e+14 (10992)
Clp0006I 5575  Obj 14.950255 Primal inf 47.087897 (2353) Dual inf 4.7711385e+14 (10586)
Clp0006I 5905  Obj 14.950255 Primal inf 47.04764 (2262) Dual inf 4.5687619e+14 (10195)
Clp0006I 6235  Obj 14.950255 Primal inf 46.997075 (2154) Dual inf 4.3239196e+14 (9766)
Clp0006I 6565  Obj 14.950255 Primal inf 46.943288 (2070) Dual inf 4.1687684e+14 (9404)
Clp0006I 6895  Obj 14.950255 Primal inf 46.892958 (1990) Dual inf 4.0177044e+14 (9054)
Clp0006I 7225  Obj 14.950255 Primal inf 46.840452 (1892) Dual inf 3.8221265e+14 (8649)
Clp0006I 7555  Obj 14.950255 Primal inf 46.789451 (1814) Dual inf 3.7035287e+14 (8367)
Clp0006I 7885  Obj 14.950255 Primal inf 46.743592 (1714) Dual inf 3.4910695e+14 (7929)
Clp0006I 8215  Obj 14.950255 Primal inf 46.697884 (1617) Dual inf 3.2665133e+14 (7510)
Clp0006I 8545  Obj 14.950255 Primal inf 46.650501 (1512) Dual inf 3.0178902e+14 (7057)
Clp0006I 8875  Obj 14.950255 Primal inf 46.602877 (1397) Dual inf 2.7668615e+14 (6648)
Clp0006I 9205  Obj 14.950255 Primal inf 46.559826 (1338) Dual inf 2.652859e+14 (6442)
Clp0006I 9535  Obj 14.950255 Primal inf 46.508303 (1222) Dual inf 2.4241441e+14 (6007)
Clp0006I 9865  Obj 14.950255 Primal inf 46.462715 (1134) Dual inf 2.2231036e+14 (5588)
Clp0006I 10195  Obj 14.950255 Primal inf 46.421337 (1056) Dual inf 2.0930697e+14 (5218)
Clp0006I 10525  Obj 14.950255 Primal inf 46.371653 (980) Dual inf 1.9670017e+14 (4952)
Clp0006I 10855  Obj 14.950255 Primal inf 46.327508 (896) Dual inf 1.7824573e+14 (4590)
Clp0006I 11185  Obj 14.950255 Primal inf 46.276764 (802) Dual inf 1.5951558e+14 (4185)
Clp0006I 11515  Obj 14.950255 Primal inf 46.238234 (717) Dual inf 1.4056819e+14 (3819)
Clp0006I 11845  Obj 14.950255 Primal inf 46.182329 (616) Dual inf 1.2009449e+14 (3398)
Clp0006I 12175  Obj 14.950255 Primal inf 46.133391 (518) Dual inf 9.8785801e+13 (2996)
Clp0006I 12505  Obj 14.950255 Primal inf 46.082064 (432) Dual inf 8.3532173e+13 (2665)
Clp0006I 12835  Obj 14.950255 Primal inf 45.83303 (356) Dual inf 6.6413675e+13 (2010)
Clp0006I 13165  Obj 14.950255 Primal inf 45.787885 (260) Dual inf 4.6148973e+13 (1625)
Clp0006I 13495  Obj 14.950255 Primal inf 45.751304 (198) Dual inf 3.2101435e+13 (1317)
Clp0006I 13825  Obj 14.950255 Primal inf 45.703238 (107) Dual inf 1.2605076e+13 (934)
Clp0029I End of values pass after 14095 iterations
Clp0006I 14095  Obj 166.2264 Primal inf 32.355601 (32) Dual inf 7.7857815e+12 (13587)
Clp0006I 14260  Obj 1224.4721 Dual inf 116627.14 (18601)
Clp0006I 14425  Obj 1224.4721 Dual inf 86892.369 (19937)
Clp0006I 14590  Obj 1224.4721 Dual inf 36721.999 (17327)
Clp0006I 14755  Obj 1224.4721 Dual inf 43146.88 (18917)
Clp0006I 14920  Obj 1224.4721 Dual inf 18656.967 (15640)
Clp0006I 15085  Obj 1224.4721 Dual inf 79292.618 (20586)
Clp0006I 15250  Obj 1224.4721 Dual inf 46834.375 (18353)
Clp0006I 15415  Obj 1224.4721 Dual inf 33743.457 (17404)
Clp0006I 15580  Obj 1224.4721 Dual inf 105024.01 (20593)
Clp0006I 15745  Obj 1218.6042 Dual inf 37514.979 (16592)
Clp0006I 15910  Obj 1207.2256 Dual inf 10397.337 (12487)
Clp0006I 16075  Obj 1202.8138 Dual inf 25960.652 (15842)
Clp0006I 16241  Obj 1193.2575 Dual inf 10398.694 (12435)
Clp0006I 16406  Obj 1193.2575 Dual inf 7246.7198 (10796)
Clp0006I 16572  Obj 1184.6799 Dual inf 16933.89 (14376)
Clp0006I 16737  Obj 1184.6799 Dual inf 10030.381 (11703)
Clp0006I 16902  Obj 1172.4939 Dual inf 8523.1567 (11195)
Clp0006I 17067  Obj 1156.192 Dual inf 6620.9659 (9513)
Clp0006I 17232  Obj 1156.192 Dual inf 5746.9405 (9270)
Clp0006I 17397  Obj 1156.192 Dual inf 6904.1664 (9877)
Clp0006I 17562  Obj 1156.192 Dual inf 12410.988 (11730)
Clp0006I 17727  Obj 1153.3356 Dual inf 7423.7801 (9904)
Clp0006I 17892  Obj 1144.1921 Dual inf 1897.1259 (5577)
Clp0006I 18058  Obj 1134.575 Dual inf 3966.6809 (7924)
Clp0006I 18223  Obj 1131.8075 Dual inf 1309.8639 (4910)
Clp0006I 18389  Obj 1119.6764 Dual inf 501.86066 (4011)
Clp0006I 18556  Obj 1115.0129 Dual inf 433.56159 (4311)
Clp0006I 18721  Obj 1114.4004 Dual inf 137.60939 (2728)
Clp0006I 18886  Obj 1113.4041 Dual inf 306.6642 (4010)
Clp0006I 19051  Obj 1113.4041 Dual inf 311.7292 (3755)
Clp0006I 19216  Obj 1113.3612 Dual inf 373.02653 (4295)
Clp0006I 19381  Obj 1112.9718 Dual inf 265.02195 (3359)
Clp0006I 19546  Obj 1112.4483 Dual inf 123.53739 (3260)
Clp0006I 19711  Obj 1112.4483 Dual inf 68.92453 (3257)
Clp0006I 19876  Obj 1112.4108 Dual inf 129.37798 (3540)
Clp0006I 20041  Obj 1112.4108 Dual inf 142.21711 (3783)
Clp0006I 20206  Obj 1112.2906 Dual inf 0.78946425 (2715)
Clp0006I 20223  Obj 1112.2906
Clp0000I Optimal - objective value 1112.2906
Clp0000I Optimal - objective value 1112.2907
Clp0032I Optimal objective 1112.290703 - 20223 iterations time 17.812, Presolve 0.37, Idiot 6.89
Clp0000I Optimal - objective value 1112.2907
NLP Heuristic: time limit reached.
Clp0000I Optimal - objective value 1112.2907
Optimality Based BT: 0 improved bounds
Probing: 0 improved bounds
Cbc0013I At root node, 0 cuts changed objective from 1112.2907 to 1112.2907 in 1 passes
Cbc0014I Cut generator 0 (Couenne convexifier cuts) - 0 row cuts average 0.0 elements, 0 column cuts (0 active)
Cbc0020I Exiting on maximum time
Cbc0005I Partial search - best objective 1e+50 (best possible 1112.2907), took 0 iterations and 0 nodes (1023.16 seconds)
Cbc0035I Maximum depth 0, 0 variables fixed on reduced cost

 	"Not finished"

Linearization cuts added at root node:       4849
Linearization cuts added in total:           4849  (separation time: 1.62151s)
Total solve time:                         1041.06s (1041.06s in branch-and-bound)
Lower bound:                              1112.29
Upper bound:                              3950.65  (gap: 254.95%)
Branch-and-bound nodes:                         0
Stats: /tmp/jl_LRbdpG/model.nl 59448 [var]  314 [int] 4648 [con]  281 [aux]   4849 [root]     4849 [tot] 1.62151 [sep]  1041.06 [time]  1041.13 [bb]         1.112291e+03 [lower]         3.950653e+03 [upper]       0 [nodes]
Performance of                           FBBT:	    2.84142s,        4 runs. fix:          0 shrnk:    106.357 ubd:          0 2ubd:          0 infeas:          0
Performance of                           OBBT:	    1017.57s,        1 runs. fix:          0 shrnk:          0 ubd:          0 2ubd:          0 infeas:          0
ERROR: LoadError: MathOptInterface.GetAttributeNotAllowed{MathOptInterface.ObjectiveBound}: Getting attribute MathOptInterface.ObjectiveBound() cannot be performed: AmplNLWriter.Optimizer does not support getting the attribute MathOptInterface.ObjectiveBound(). You may want to use a `CachingOptimizer` in `AUTOMATIC` mode or you may need to call `reset_optimizer` before doing this operation if the `CachingOptimizer` is in `MANUAL` mode.
Stacktrace:
  [1] get_fallback(model::AmplNLWriter.Optimizer, attr::MathOptInterface.ObjectiveBound)
    @ MathOptInterface ~/.julia/packages/MathOptInterface/gLl4d/src/attributes.jl:409
  [2] get(::AmplNLWriter.Optimizer, ::MathOptInterface.ObjectiveBound)
    @ MathOptInterface ~/.julia/packages/MathOptInterface/gLl4d/src/attributes.jl:390
  [3] _get_model_attribute(model::MathOptInterface.Utilities.CachingOptimizer{AmplNLWriter.Optimizer, MathOptInterface.Utilities.UniversalFallback{MathOptInterface.Utilities.Model{Float64}}}, attr::MathOptInterface.ObjectiveBound)
    @ MathOptInterface.Utilities ~/.julia/packages/MathOptInterface/gLl4d/src/Utilities/cachingoptimizer.jl:865
  [4] get(model::MathOptInterface.Utilities.CachingOptimizer{AmplNLWriter.Optimizer, MathOptInterface.Utilities.UniversalFallback{MathOptInterface.Utilities.Model{Float64}}}, attr::MathOptInterface.ObjectiveBound)
    @ MathOptInterface.Utilities ~/.julia/packages/MathOptInterface/gLl4d/src/Utilities/cachingoptimizer.jl:900
  [5] get(b::MathOptInterface.Bridges.LazyBridgeOptimizer{MathOptInterface.Utilities.CachingOptimizer{AmplNLWriter.Optimizer, MathOptInterface.Utilities.UniversalFallback{MathOptInterface.Utilities.Model{Float64}}}}, attr::MathOptInterface.ObjectiveBound)
    @ MathOptInterface.Bridges ~/.julia/packages/MathOptInterface/gLl4d/src/Bridges/bridge_optimizer.jl:889
  [6] _get_model_attribute(model::MathOptInterface.Utilities.CachingOptimizer{MathOptInterface.Bridges.LazyBridgeOptimizer{MathOptInterface.Utilities.CachingOptimizer{AmplNLWriter.Optimizer, MathOptInterface.Utilities.UniversalFallback{MathOptInterface.Utilities.Model{Float64}}}}, MathOptInterface.Utilities.UniversalFallback{MathOptInterface.Utilities.Model{Float64}}}, attr::MathOptInterface.ObjectiveBound)
    @ MathOptInterface.Utilities ~/.julia/packages/MathOptInterface/gLl4d/src/Utilities/cachingoptimizer.jl:865
  [7] get(model::MathOptInterface.Utilities.CachingOptimizer{MathOptInterface.Bridges.LazyBridgeOptimizer{MathOptInterface.Utilities.CachingOptimizer{AmplNLWriter.Optimizer, MathOptInterface.Utilities.UniversalFallback{MathOptInterface.Utilities.Model{Float64}}}}, MathOptInterface.Utilities.UniversalFallback{MathOptInterface.Utilities.Model{Float64}}}, attr::MathOptInterface.ObjectiveBound)
    @ MathOptInterface.Utilities ~/.julia/packages/MathOptInterface/gLl4d/src/Utilities/cachingoptimizer.jl:900
  [8] _moi_get_result(model::MathOptInterface.Utilities.CachingOptimizer{MathOptInterface.Bridges.LazyBridgeOptimizer{MathOptInterface.Utilities.CachingOptimizer{AmplNLWriter.Optimizer, MathOptInterface.Utilities.UniversalFallback{MathOptInterface.Utilities.Model{Float64}}}}, MathOptInterface.Utilities.UniversalFallback{MathOptInterface.Utilities.Model{Float64}}}, args::MathOptInterface.ObjectiveBound)
    @ JuMP ~/.julia/packages/JuMP/i68GU/src/optimizer_interface.jl:1053
  [9] get(model::JuMP.Model, attr::MathOptInterface.ObjectiveBound)
    @ JuMP ~/.julia/packages/JuMP/i68GU/src/optimizer_interface.jl:1073
 [10] objective_bound(model::JuMP.Model)
    @ JuMP ~/.julia/packages/JuMP/i68GU/src/objective.jl:78
 [11] nl_mcf(ptype::String, graph::String, commodities::String, nodes::String, incr::Int64, cost::Symbol, solver::AmplNLWriter.Optimizer, solver_params::Vector{Any}; restrict_to_commodities::Int64, solve::Bool, write_nl::Bool)
    @ IterativePWLB ~/git/ipwlb/code/sources/IterativePWLB/src/nlsolver.jl:1332
 [12] top-level scope
    @ ~/git/ipwlb/code/sources/IterativePWLB/test/couenne/mcf_nodes/script.jl:18
in expression starting at /home/ccontard/git/ipwlb/code/sources/IterativePWLB/test/couenne/mcf_nodes/script.jl:18
